\* Source Pyomo model name=unknown *\

min 
OBJ:
+20 xDA(1_1)
+35 xDA(2_1)
+50 xDA(3_1)
+60 xDA(4_1)
+70 xDA(5_1)
+16.0 hsu(1_1_1)
+28.0 hsu(1_2_1)
+40.0 hsu(1_3_1)
+48.0 hsu(1_4_1)
+56.0 hsu(1_5_1)
+12.0 hsu(2_1_1)
+21.0 hsu(2_2_1)
+30.0 hsu(2_3_1)
+36.0 hsu(2_4_1)
+42.0 hsu(2_5_1)
+8.0 hsu(3_1_1)
+14.0 hsu(3_2_1)
+20.0 hsu(3_3_1)
+24.0 hsu(3_4_1)
+28.0 hsu(3_5_1)
+4.0 hsu(4_1_1)
+7.0 hsu(4_2_1)
+10.0 hsu(4_3_1)
+12.0 hsu(4_4_1)
+14.0 hsu(4_5_1)
-4.0 hsd(1_1_1)
-7.0 hsd(1_2_1)
-10.0 hsd(1_3_1)
-12.0 hsd(1_4_1)
-14.0 hsd(1_5_1)
-8.0 hsd(2_1_1)
-14.0 hsd(2_2_1)
-20.0 hsd(2_3_1)
-24.0 hsd(2_4_1)
-28.0 hsd(2_5_1)
-12.0 hsd(3_1_1)
-21.0 hsd(3_2_1)
-30.0 hsd(3_3_1)
-36.0 hsd(3_4_1)
-42.0 hsd(3_5_1)
-16.0 hsd(4_1_1)
-28.0 hsd(4_2_1)
-40.0 hsd(4_3_1)
-48.0 hsd(4_4_1)
-56.0 hsd(4_5_1)
+1600.0 sdu(1_1)
+1200.0 sdu(2_1)
+800.0 sdu(3_1)
+400.0 sdu(4_1)
+0.01 y(1_1)
+1 d(1)
+1 du(1_1)
+ [
+220.0 d(1) ^ 2
+440.0 d(1) * du(1_1)
+220.0 du(1_1) ^ 2
] / 2

s.t.

c_e_Con3(1)_:
+1 xDA(1_1)
+1 xDA(2_1)
+1 xDA(3_1)
+1 xDA(4_1)
+1 xDA(5_1)
+1 d(1)
+1 rgDA(1)
= 200

c_e_Con4UP(1_1)_:
+1 hsu(1_1_1)
+1 hsu(1_2_1)
+1 hsu(1_3_1)
+1 hsu(1_4_1)
+1 hsu(1_5_1)
-1 hdu(1_1)
= 0

c_e_Con4UP(2_1)_:
+1 hsu(2_1_1)
+1 hsu(2_2_1)
+1 hsu(2_3_1)
+1 hsu(2_4_1)
+1 hsu(2_5_1)
-1 hdu(2_1)
= 0

c_e_Con4UP(3_1)_:
+1 hsu(3_1_1)
+1 hsu(3_2_1)
+1 hsu(3_3_1)
+1 hsu(3_4_1)
+1 hsu(3_5_1)
-1 hdu(3_1)
= 0

c_e_Con4UP(4_1)_:
+1 hsu(4_1_1)
+1 hsu(4_2_1)
+1 hsu(4_3_1)
+1 hsu(4_4_1)
+1 hsu(4_5_1)
-1 hdu(4_1)
= 0

c_e_Con4DN(1_1)_:
+1 hsd(1_1_1)
+1 hsd(1_2_1)
+1 hsd(1_3_1)
+1 hsd(1_4_1)
+1 hsd(1_5_1)
-1 hdd(1_1)
= 0

c_e_Con4DN(2_1)_:
+1 hsd(2_1_1)
+1 hsd(2_2_1)
+1 hsd(2_3_1)
+1 hsd(2_4_1)
+1 hsd(2_5_1)
-1 hdd(2_1)
= 0

c_e_Con4DN(3_1)_:
+1 hsd(3_1_1)
+1 hsd(3_2_1)
+1 hsd(3_3_1)
+1 hsd(3_4_1)
+1 hsd(3_5_1)
-1 hdd(3_1)
= 0

c_e_Con4DN(4_1)_:
+1 hsd(4_1_1)
+1 hsd(4_2_1)
+1 hsd(4_3_1)
+1 hsd(4_4_1)
+1 hsd(4_5_1)
-1 hdd(4_1)
= 0

c_e_Con6(1_1)_:
+1 sdu(1_1)
+1 sdu(2_1)
+1 sdu(3_1)
+1 sdu(4_1)
+1 du(1_1)
-1 rgDA(1)
+1 hdu(1_1)
+1 hdu(2_1)
+1 hdu(3_1)
+1 hdu(4_1)
= -131

c_u_Con11(1_1)_:
+1 xDA(1_1)
+1 hsu(1_1_1)
+1 hsu(2_1_1)
+1 hsu(3_1_1)
+1 hsu(4_1_1)
<= 50

c_u_Con11(2_1)_:
+1 xDA(2_1)
+1 hsu(1_2_1)
+1 hsu(2_2_1)
+1 hsu(3_2_1)
+1 hsu(4_2_1)
<= 10

c_u_Con11(3_1)_:
+1 xDA(3_1)
+1 hsu(1_3_1)
+1 hsu(2_3_1)
+1 hsu(3_3_1)
+1 hsu(4_3_1)
<= 10

c_u_Con11(4_1)_:
+1 xDA(4_1)
+1 hsu(1_4_1)
+1 hsu(2_4_1)
+1 hsu(3_4_1)
+1 hsu(4_4_1)
<= 10

c_u_Con11(5_1)_:
+1 xDA(5_1)
+1 hsu(1_5_1)
+1 hsu(2_5_1)
+1 hsu(3_5_1)
+1 hsu(4_5_1)
<= 10

c_u_Con12(1_1)_:
-1 xDA(1_1)
+1 hsd(1_1_1)
+1 hsd(2_1_1)
+1 hsd(3_1_1)
+1 hsd(4_1_1)
<= 0

c_u_Con12(2_1)_:
-1 xDA(2_1)
+1 hsd(1_2_1)
+1 hsd(2_2_1)
+1 hsd(3_2_1)
+1 hsd(4_2_1)
<= 0

c_u_Con12(3_1)_:
-1 xDA(3_1)
+1 hsd(1_3_1)
+1 hsd(2_3_1)
+1 hsd(3_3_1)
+1 hsd(4_3_1)
<= 0

c_u_Con12(4_1)_:
-1 xDA(4_1)
+1 hsd(1_4_1)
+1 hsd(2_4_1)
+1 hsd(3_4_1)
+1 hsd(4_4_1)
<= 0

c_u_Con12(5_1)_:
-1 xDA(5_1)
+1 hsd(1_5_1)
+1 hsd(2_5_1)
+1 hsd(3_5_1)
+1 hsd(4_5_1)
<= 0

bounds
   0 <= xDA(1_1) <= +inf
   0 <= xDA(2_1) <= +inf
   0 <= xDA(3_1) <= +inf
   0 <= xDA(4_1) <= +inf
   0 <= xDA(5_1) <= +inf
   0 <= hsu(1_1_1) <= +inf
   0 <= hsu(1_2_1) <= +inf
   0 <= hsu(1_3_1) <= +inf
   0 <= hsu(1_4_1) <= +inf
   0 <= hsu(1_5_1) <= +inf
   0 <= hsu(2_1_1) <= +inf
   0 <= hsu(2_2_1) <= +inf
   0 <= hsu(2_3_1) <= +inf
   0 <= hsu(2_4_1) <= +inf
   0 <= hsu(2_5_1) <= +inf
   0 <= hsu(3_1_1) <= +inf
   0 <= hsu(3_2_1) <= +inf
   0 <= hsu(3_3_1) <= +inf
   0 <= hsu(3_4_1) <= +inf
   0 <= hsu(3_5_1) <= +inf
   0 <= hsu(4_1_1) <= +inf
   0 <= hsu(4_2_1) <= +inf
   0 <= hsu(4_3_1) <= +inf
   0 <= hsu(4_4_1) <= +inf
   0 <= hsu(4_5_1) <= +inf
   0 <= hsd(1_1_1) <= +inf
   0 <= hsd(1_2_1) <= +inf
   0 <= hsd(1_3_1) <= +inf
   0 <= hsd(1_4_1) <= +inf
   0 <= hsd(1_5_1) <= +inf
   0 <= hsd(2_1_1) <= +inf
   0 <= hsd(2_2_1) <= +inf
   0 <= hsd(2_3_1) <= +inf
   0 <= hsd(2_4_1) <= +inf
   0 <= hsd(2_5_1) <= +inf
   0 <= hsd(3_1_1) <= +inf
   0 <= hsd(3_2_1) <= +inf
   0 <= hsd(3_3_1) <= +inf
   0 <= hsd(3_4_1) <= +inf
   0 <= hsd(3_5_1) <= +inf
   0 <= hsd(4_1_1) <= +inf
   0 <= hsd(4_2_1) <= +inf
   0 <= hsd(4_3_1) <= +inf
   0 <= hsd(4_4_1) <= +inf
   0 <= hsd(4_5_1) <= +inf
   0 <= sdu(1_1) <= +inf
   0 <= sdu(2_1) <= +inf
   0 <= sdu(3_1) <= +inf
   0 <= sdu(4_1) <= +inf
   0 <= y(1_1) <= +inf
   0 <= d(1) <= +inf
   -inf <= du(1_1) <= +inf
   0 <= rgDA(1) <= +inf
   0 <= hdu(1_1) <= +inf
   0 <= hdu(2_1) <= +inf
   0 <= hdu(3_1) <= +inf
   0 <= hdu(4_1) <= +inf
   0 <= hdd(1_1) <= +inf
   0 <= hdd(2_1) <= +inf
   0 <= hdd(3_1) <= +inf
   0 <= hdd(4_1) <= +inf
end
